benchmarks_CP/INST_36x36/55/inst36x36_55_22.dzn
S=6;
start=[|
31,	-1,	35,	36,	30,	-1,	-1,	9,	32,	7,	17,	13,	-1,	4,	-1,	24,	-1,	34,	29,	10,	19,	16,	20,	6,	27,	5,	-1,	-1,	-1,	11,	-1,	21,	12,	8,	25,	26|
1,	-1,	-1,	-1,	32,	22,	-1,	12,	-1,	3,	-1,	14,	-1,	-1,	33,	26,	2,	23,	-1,	17,	34,	15,	-1,	-1,	25,	-1,	20,	16,	8,	21,	11,	-1,	6,	-1,	5,	-1|
16,	-1,	21,	11,	-1,	-1,	29,	27,	-1,	18,	26,	-1,	12,	5,	-1,	13,	-1,	17,	7,	3,	25,	-1,	-1,	-1,	9,	19,	-1,	30,	23,	35,	-1,	33,	-1,	-1,	-1,	-1|
-1,	29,	5,	9,	-1,	-1,	15,	-1,	28,	34,	11,	1,	-1,	32,	-1,	20,	16,	36,	27,	-1,	30,	18,	-1,	-1,	-1,	-1,	2,	22,	12,	-1,	19,	-1,	-1,	-1,	17,	-1|
4,	28,	34,	-1,	12,	-1,	20,	30,	-1,	-1,	-1,	23,	21,	-1,	25,	15,	27,	-1,	-1,	-1,	-1,	26,	5,	11,	36,	18,	-1,	3,	-1,	32,	22,	16,	29,	-1,	7,	2|
17,	20,	27,	-1,	-1,	15,	-1,	-1,	5,	-1,	-1,	-1,	19,	30,	31,	3,	-1,	11,	-1,	33,	2,	-1,	1,	22,	34,	-1,	14,	24,	-1,	4,	18,	-1,	36,	-1,	-1,	-1|
15,	17,	3,	30,	-1,	27,	-1,	-1,	11,	23,	6,	9,	20,	14,	-1,	32,	34,	-1,	25,	-1,	-1,	-1,	13,	-1,	4,	12,	33,	35,	36,	-1,	-1,	31,	7,	21,	18,	-1|
24,	8,	-1,	-1,	35,	29,	19,	-1,	-1,	-1,	-1,	-1,	-1,	18,	26,	21,	-1,	-1,	22,	32,	-1,	3,	16,	-1,	20,	-1,	6,	11,	27,	7,	12,	-1,	-1,	36,	-1,	25|
21,	7,	-1,	-1,	28,	-1,	-1,	4,	29,	27,	-1,	-1,	-1,	-1,	-1,	-1,	22,	19,	6,	-1,	18,	-1,	9,	34,	-1,	16,	-1,	25,	-1,	-1,	33,	-1,	-1,	-1,	24,	-1|
36,	-1,	-1,	-1,	-1,	-1,	-1,	-1,	16,	12,	18,	7,	-1,	33,	23,	29,	-1,	25,	24,	14,	10,	28,	4,	-1,	30,	-1,	-1,	1,	2,	-1,	13,	-1,	-1,	-1,	9,	35|
-1,	-1,	33,	23,	31,	-1,	-1,	32,	-1,	-1,	-1,	-1,	-1,	36,	12,	-1,	6,	-1,	-1,	-1,	-1,	20,	7,	27,	-1,	9,	-1,	34,	-1,	19,	8,	-1,	14,	16,	1,	-1|
9,	32,	-1,	18,	4,	25,	30,	1,	-1,	20,	34,	-1,	-1,	16,	-1,	-1,	8,	3,	-1,	-1,	-1,	-1,	-1,	-1,	13,	-1,	29,	15,	14,	-1,	-1,	-1,	19,	-1,	28,	-1|
-1,	4,	29,	-1,	-1,	-1,	14,	20,	34,	21,	-1,	31,	7,	-1,	-1,	-1,	18,	32,	26,	9,	-1,	-1,	10,	-1,	-1,	30,	11,	19,	-1,	33,	25,	-1,	24,	17,	-1,	8|
-1,	-1,	30,	31,	-1,	24,	27,	-1,	-1,	26,	22,	33,	-1,	15,	-1,	-1,	-1,	6,	-1,	8,	3,	11,	28,	-1,	5,	-1,	34,	-1,	-1,	-1,	-1,	23,	2,	18,	-1,	-1|
-1,	16,	-1,	-1,	-1,	32,	-1,	3,	36,	-1,	5,	8,	-1,	11,	17,	-1,	31,	-1,	-1,	-1,	14,	24,	29,	25,	-1,	22,	-1,	21,	18,	-1,	35,	27,	13,	19,	-1,	-1|
11,	-1,	-1,	8,	14,	-1,	6,	-1,	9,	35,	1,	-1,	25,	24,	-1,	34,	23,	-1,	-1,	-1,	-1,	22,	-1,	2,	7,	20,	31,	-1,	-1,	15,	-1,	32,	5,	-1,	36,	-1|
-1,	35,	-1,	21,	17,	7,	-1,	2,	30,	-1,	-1,	11,	-1,	3,	-1,	22,	-1,	27,	32,	-1,	-1,	-1,	34,	20,	8,	-1,	-1,	-1,	24,	-1,	31,	29,	4,	-1,	-1,	9|
22,	23,	2,	-1,	18,	12,	7,	15,	-1,	-1,	-1,	-1,	26,	8,	-1,	-1,	10,	-1,	-1,	-1,	-1,	-1,	-1,	33,	14,	25,	-1,	27,	-1,	29,	16,	-1,	-1,	-1,	-1,	-1|
-1,	-1,	20,	12,	-1,	18,	-1,	-1,	-1,	-1,	-1,	2,	34,	25,	24,	19,	-1,	14,	-1,	11,	-1,	10,	26,	35,	-1,	17,	23,	-1,	-1,	13,	-1,	-1,	15,	30,	-1,	33|
7,	-1,	17,	-1,	-1,	21,	34,	6,	-1,	-1,	27,	-1,	36,	-1,	-1,	23,	-1,	-1,	-1,	-1,	-1,	30,	18,	-1,	-1,	14,	-1,	31,	-1,	-1,	1,	-1,	35,	-1,	-1,	24|
26,	25,	36,	-1,	2,	-1,	33,	-1,	19,	-1,	23,	-1,	-1,	-1,	21,	17,	11,	18,	-1,	4,	22,	-1,	32,	-1,	-1,	24,	-1,	29,	-1,	-1,	20,	-1,	-1,	9,	-1,	-1|
-1,	-1,	15,	10,	-1,	-1,	-1,	11,	26,	-1,	20,	-1,	-1,	1,	29,	5,	35,	28,	2,	25,	27,	17,	-1,	9,	-1,	34,	-1,	18,	-1,	3,	36,	14,	31,	22,	-1,	21|
-1,	24,	-1,	-1,	-1,	-1,	10,	18,	7,	29,	12,	30,	-1,	-1,	-1,	-1,	9,	13,	28,	-1,	-1,	-1,	33,	14,	-1,	-1,	19,	-1,	5,	26,	17,	-1,	25,	2,	4,	-1|
30,	14,	-1,	-1,	13,	-1,	25,	-1,	-1,	-1,	9,	-1,	-1,	20,	-1,	33,	-1,	12,	34,	6,	-1,	19,	31,	-1,	-1,	27,	-1,	-1,	22,	-1,	5,	-1,	18,	26,	11,	23|
18,	27,	-1,	-1,	29,	-1,	17,	-1,	-1,	30,	-1,	-1,	28,	34,	16,	-1,	25,	20,	-1,	24,	-1,	1,	2,	7,	32,	-1,	21,	5,	33,	12,	9,	26,	22,	11,	19,	-1|
8,	15,	24,	22,	11,	-1,	18,	-1,	23,	-1,	4,	-1,	-1,	-1,	6,	30,	26,	7,	35,	16,	17,	-1,	-1,	31,	-1,	-1,	1,	2,	25,	20,	14,	-1,	-1,	12,	13,	28|
28,	-1,	25,	-1,	21,	-1,	11,	13,	-1,	22,	-1,	29,	1,	35,	32,	14,	17,	-1,	3,	-1,	-1,	27,	-1,	12,	-1,	8,	-1,	-1,	9,	-1,	-1,	10,	-1,	-1,	20,	7|
33,	30,	9,	-1,	6,	-1,	26,	19,	14,	24,	-1,	35,	2,	22,	-1,	-1,	-1,	8,	10,	20,	-1,	13,	-1,	23,	-1,	31,	3,	-1,	11,	-1,	15,	1,	16,	-1,	-1,	-1|
-1,	-1,	16,	-1,	-1,	-1,	32,	5,	20,	-1,	-1,	12,	-1,	23,	13,	-1,	36,	10,	9,	-1,	28,	-1,	-1,	-1,	-1,	6,	-1,	-1,	-1,	-1,	21,	25,	-1,	-1,	3,	-1|
-1,	-1,	-1,	-1,	-1,	-1,	31,	-1,	-1,	-1,	-1,	16,	5,	21,	19,	11,	-1,	9,	4,	-1,	32,	14,	15,	18,	24,	10,	22,	17,	29,	30,	-1,	-1,	-1,	-1,	23,	27|
35,	21,	4,	-1,	-1,	-1,	22,	7,	-1,	5,	-1,	19,	18,	2,	34,	16,	30,	26,	33,	13,	-1,	-1,	-1,	-1,	11,	28,	-1,	23,	32,	1,	6,	-1,	-1,	15,	-1,	-1|
-1,	-1,	-1,	-1,	27,	-1,	-1,	31,	-1,	11,	14,	-1,	-1,	-1,	36,	6,	32,	-1,	-1,	-1,	-1,	-1,	3,	10,	-1,	-1,	4,	-1,	-1,	-1,	24,	28,	-1,	35,	-1,	-1|
13,	-1,	-1,	28,	24,	30,	35,	-1,	-1,	-1,	-1,	20,	-1,	12,	-1,	8,	21,	-1,	36,	26,	16,	-1,	6,	-1,	10,	-1,	7,	-1,	-1,	-1,	-1,	18,	9,	25,	-1,	-1|
-1,	10,	31,	15,	-1,	1,	28,	24,	13,	17,	36,	-1,	-1,	-1,	-1,	-1,	20,	-1,	-1,	-1,	-1,	34,	22,	-1,	-1,	33,	30,	-1,	-1,	27,	-1,	8,	26,	23,	2,	19|
14,	-1,	-1,	-1,	33,	-1,	-1,	23,	-1,	4,	32,	34,	-1,	27,	5,	-1,	-1,	29,	31,	28,	-1,	-1,	-1,	1,	22,	35,	-1,	12,	26,	-1,	3,	-1,	-1,	7,	21,	17|
32,	12,	19,	7,	5,	34,	9,	26,	18,	6,	-1,	-1,	13,	-1,	3,	25,	-1,	33,	23,	-1,	35,	-1,	-1,	21,	-1,	-1,	-1,	8,	-1,	31,	-1,	36,	-1,	14,	16,	-1|];
