benchmarks/INST_36x36/55/inst36x36_55_22.txt
6
1
-1	3	-1	36	-1	14	-1	-1	32	-1	-1	13	22	4	-1	24	28	34	29	10	-1	-1	20	6	-1	5	15	-1	-1	-1	-1	21	12	8	-1	26
-1	18	7	-1	32	-1	-1	12	24	3	31	14	10	9	33	26	2	-1	13	17	-1	15	-1	-1	-1	-1	-1	-1	-1	-1	11	30	-1	27	-1	4
-1	-1	21	11	-1	-1	29	27	-1	-1	26	-1	12	-1	8	-1	14	-1	-1	3	-1	32	24	36	9	19	-1	-1	-1	35	34	-1	-1	31	15	1
-1	-1	-1	-1	-1	-1	15	-1	-1	34	11	1	35	-1	7	20	16	-1	27	21	-1	18	-1	-1	31	-1	2	22	-1	6	19	24	3	-1	17	14
4	-1	-1	24	12	8	-1	30	35	33	19	23	-1	6	-1	15	27	1	-1	31	9	26	-1	-1	-1	18	-1	-1	13	-1	-1	16	-1	-1	7	2
-1	-1	27	-1	26	15	21	-1	5	-1	-1	6	19	-1	-1	3	-1	11	12	33	2	-1	1	22	34	7	14	24	-1	-1	18	9	36	-1	35	32
-1	-1	3	-1	-1	27	-1	22	11	-1	6	-1	-1	14	-1	-1	-1	-1	25	-1	-1	-1	13	-1	4	12	33	35	36	28	-1	31	-1	21	-1	29
24	-1	1	2	35	-1	19	17	-1	-1	10	-1	-1	-1	26	21	-1	-1	-1	32	-1	-1	16	-1	20	23	-1	-1	-1	-1	-1	-1	34	-1	30	25
-1	-1	12	-1	-1	20	8	-1	-1	27	13	-1	-1	17	30	1	22	-1	6	35	18	-1	9	-1	3	-1	-1	25	-1	10	-1	2	-1	-1	24	-1
36	-1	-1	5	-1	26	3	21	-1	12	-1	-1	-1	33	23	29	15	25	24	14	-1	28	4	17	30	-1	8	1	2	-1	-1	11	27	-1	-1	35
-1	-1	-1	23	31	11	-1	-1	25	-1	-1	15	-1	-1	-1	-1	-1	-1	30	29	21	20	-1	-1	-1	-1	18	-1	17	19	-1	22	14	16	-1	3
9	32	22	18	-1	25	-1	-1	31	20	-1	36	-1	16	-1	-1	8	3	11	-1	33	12	23	-1	-1	-1	29	-1	14	24	10	17	19	5	-1	-1
27	4	-1	-1	36	5	14	-1	-1	21	-1	-1	-1	-1	-1	12	18	32	-1	-1	23	35	-1	16	-1	30	11	19	6	-1	25	-1	-1	-1	-1	8
25	-1	30	31	-1	-1	-1	16	12	-1	-1	-1	29	-1	20	36	19	6	-1	8	-1	-1	-1	-1	5	-1	-1	32	35	17	-1	-1	2	-1	14	10
-1	16	-1	-1	15	32	-1	3	36	10	5	8	-1	-1	-1	-1	-1	-1	-1	7	14	24	29	25	-1	22	26	-1	18	-1	35	-1	13	-1	12	20
11	33	26	-1	14	13	6	29	-1	35	-1	18	-1	24	4	34	23	21	-1	27	12	-1	17	2	-1	-1	-1	-1	16	-1	28	32	-1	3	36	30
-1	-1	10	21	17	-1	-1	2	30	13	25	-1	16	3	14	-1	5	27	-1	-1	-1	6	34	20	8	1	-1	28	-1	36	31	-1	-1	-1	26	9
22	-1	2	-1	-1	-1	-1	15	-1	-1	-1	-1	-1	8	28	9	-1	-1	-1	36	4	31	-1	33	-1	25	13	27	3	-1	16	34	-1	1	-1	11
-1	31	20	12	22	18	-1	28	-1	-1	-1	-1	-1	25	-1	19	7	14	-1	11	29	10	-1	-1	6	17	23	9	-1	13	-1	3	15	-1	32	33
7	11	17	33	9	21	34	-1	3	-1	-1	-1	36	26	15	-1	-1	16	-1	-1	-1	30	-1	8	12	-1	-1	-1	28	-1	-1	19	-1	29	10	24
-1	-1	-1	-1	2	16	-1	-1	19	-1	-1	-1	6	-1	-1	17	11	18	15	-1	22	-1	32	3	1	24	-1	-1	30	-1	20	12	-1	-1	-1	13
6	19	15	10	23	4	13	-1	-1	16	20	24	30	-1	29	-1	35	-1	2	-1	27	-1	12	9	33	34	-1	-1	-1	3	-1	14	-1	22	8	21
-1	24	32	1	34	-1	-1	18	-1	29	12	30	-1	31	22	-1	-1	-1	-1	-1	36	21	33	14	-1	11	19	-1	-1	-1	-1	6	25	2	-1	16
30	-1	-1	-1	-1	-1	25	35	4	15	9	17	32	-1	-1	33	-1	12	-1	6	1	19	31	24	21	27	-1	-1	22	-1	-1	7	18	26	11	-1
18	27	-1	35	-1	23	-1	-1	-1	-1	-1	3	28	34	16	4	-1	-1	8	24	-1	1	-1	-1	-1	-1	-1	5	33	12	-1	-1	-1	-1	19	31
-1	-1	24	-1	11	10	18	34	-1	9	-1	27	-1	29	6	-1	-1	-1	35	16	-1	-1	21	31	-1	-1	1	2	25	20	-1	-1	-1	12	-1	-1
28	-1	25	34	21	31	-1	-1	-1	-1	-1	-1	1	-1	32	-1	17	15	3	-1	-1	-1	-1	-1	18	8	-1	4	9	-1	-1	10	-1	24	-1	-1
-1	30	-1	32	-1	-1	-1	19	-1	-1	-1	-1	-1	-1	27	18	-1	8	10	-1	5	-1	25	-1	-1	-1	3	-1	11	-1	15	-1	16	4	29	36
2	1	-1	4	7	19	32	5	20	-1	-1	12	-1	23	13	31	36	-1	9	-1	-1	29	11	-1	35	6	-1	26	15	14	21	-1	-1	-1	-1	-1
12	-1	-1	-1	20	-1	31	-1	1	28	7	-1	-1	-1	-1	11	33	-1	-1	-1	32	-1	15	18	-1	-1	22	-1	-1	30	2	35	8	-1	23	-1
-1	-1	-1	-1	8	-1	-1	-1	-1	-1	3	-1	-1	2	34	16	-1	-1	33	-1	-1	25	14	29	11	28	9	-1	-1	1	-1	20	-1	15	31	-1
-1	26	-1	-1	27	-1	-1	31	2	11	-1	21	-1	19	-1	-1	32	22	17	-1	7	8	-1	10	-1	15	4	-1	34	-1	-1	-1	1	35	33	5
13	22	23	-1	24	30	35	33	15	1	29	20	-1	12	11	-1	21	-1	-1	26	-1	-1	-1	32	10	3	-1	14	-1	-1	4	18	9	25	-1	34
-1	-1	31	15	3	1	-1	24	13	17	-1	25	-1	7	-1	35	20	-1	-1	12	11	-1	22	5	-1	33	-1	-1	-1	27	32	8	-1	23	2	-1
14	2	11	-1	-1	6	16	23	8	4	-1	34	15	27	5	-1	24	-1	31	-1	20	9	19	1	-1	-1	36	-1	26	-1	-1	-1	30	-1	-1	17
32	12	19	7	5	34	9	-1	-1	-1	30	10	-1	28	-1	25	1	-1	23	15	35	-1	27	21	-1	2	-1	8	-1	31	29	36	-1	14	-1	-1
